c User generated cnf file
p cnf 11 52
2 -7 4 0 
10 10 -3 0 
-8 7 9 0 
6 -9 7 0 
2 2 -2 0 
11 3 -2 0 
3 -1 8 0 
11 -3 4 0 
-4 11 6 0 
8 -3 8 0 
11 -8 9 0 
-2 10 11 0 
-2 3 3 0 
-2 2 4 0 
7 1 -7 0 
11 7 -10 0 
11 -1 4 0 
2 11 -1 0 
5 7 -10 0 
-4 5 6 0 
6 5 -8 0 
5 1 -1 0 
11 11 -11 0 
5 -9 4 0 
4 5 -2 0 
-4 3 8 0 
-6 6 5 0 
-4 3 9 0 
-3 3 7 0 
6 -1 10 0 
1 -2 9 0 
5 5 -5 0 
5 8 -5 0 
-4 4 10 0 
-11 11 11 0 
9 7 -8 0 
6 -3 6 0 
2 -4 8 0 
10 -3 2 0 
11 2 -8 0 
3 -2 9 0 
1 -10 4 0 
10 -3 9 0 
-4 4 7 0 
3 7 -6 0 
-1 11 11 0 
4 11 -1 0 
-4 4 11 0 
-2 1 4 0 
-2 7 1 0 
-2 3 3 0 
7 3 -11 0 
